c SAT Generator for power-law distributed variable frequencies
c -g u -v 20 -c 91 -k 3 -p 2.750000 -b 3.200000 -f /home/schmidt/Devel/ni-kop-sat/data/ensemble/ruf20-91/ruf20-91-767 -u 1 -U 1 -s 3513633605
p cnf 20 91
10 -11 -19 0
-3 16 18 0
-1 5 -8 0
4 -7 19 0
-6 -13 -18 0
-4 -15 19 0
-1 15 -18 0
3 -12 16 0
5 -9 -10 0
1 12 18 0
2 -4 17 0
-1 -10 -14 0
-5 -11 -17 0
-7 9 11 0
4 -5 -6 0
2 -6 16 0
-2 6 17 0
1 -4 -12 0
-3 -13 18 0
11 -12 -20 0
3 5 -10 0
-1 -6 17 0
9 -18 19 0
-1 14 15 0
-8 12 13 0
2 6 14 0
1 -3 -20 0
3 -13 -20 0
-10 12 -19 0
-4 -9 14 0
-3 -15 17 0
6 10 15 0
9 15 -16 0
-12 -19 -20 0
-1 -6 14 0
-11 -16 -20 0
17 18 20 0
2 -7 -9 0
1 3 -8 0
-7 8 -12 0
13 -17 -20 0
-1 -14 19 0
7 -15 17 0
-1 4 -16 0
6 8 20 0
-5 -15 -18 0
11 14 17 0
-4 10 14 0
4 12 -13 0
11 -16 19 0
14 17 20 0
3 -10 11 0
2 -12 -19 0
-1 15 18 0
-8 10 -16 0
-5 -6 -9 0
6 -9 11 0
3 9 19 0
-4 -9 17 0
-6 14 16 0
4 7 -15 0
-15 16 -19 0
-7 10 -14 0
-3 6 9 0
1 -15 -19 0
7 13 -20 0
-5 -10 -13 0
5 7 -13 0
3 -12 -16 0
-5 11 16 0
8 -9 13 0
-2 8 -14 0
3 -6 -13 0
-7 11 -14 0
10 -13 -18 0
-9 -17 -19 0
-8 -13 15 0
-2 9 -15 0
-4 17 -20 0
-8 16 -20 0
1 12 -15 0
8 -10 15 0
8 -14 16 0
3 -12 -18 0
4 12 -20 0
3 11 14 0
-2 -4 -20 0
-5 6 20 0
-2 7 -17 0
-9 14 -18 0
-7 -9 17 0
